; label array extracted from german_numeric.csv
(declare-const O (Array Int Int))
(define-fun m () Int 300)

(assert (= (select O 0) 1))
(assert (= (select O 1) 2))
(assert (= (select O 2) 1))
(assert (= (select O 3) 1))
(assert (= (select O 4) 2))
(assert (= (select O 5) 1))
(assert (= (select O 6) 1))
(assert (= (select O 7) 1))
(assert (= (select O 8) 1))
(assert (= (select O 9) 2))
(assert (= (select O 10) 2))
(assert (= (select O 11) 2))
(assert (= (select O 12) 1))
(assert (= (select O 13) 2))
(assert (= (select O 14) 1))
(assert (= (select O 15) 2))
(assert (= (select O 16) 1))
(assert (= (select O 17) 1))
(assert (= (select O 18) 2))
(assert (= (select O 19) 1))
(assert (= (select O 20) 1))
(assert (= (select O 21) 1))
(assert (= (select O 22) 1))
(assert (= (select O 23) 1))
(assert (= (select O 24) 1))
(assert (= (select O 25) 1))
(assert (= (select O 26) 1))
(assert (= (select O 27) 1))
(assert (= (select O 28) 1))
(assert (= (select O 29) 2))
(assert (= (select O 30) 1))
(assert (= (select O 31) 1))
(assert (= (select O 32) 1))
(assert (= (select O 33) 1))
(assert (= (select O 34) 1))
(assert (= (select O 35) 2))
(assert (= (select O 36) 1))
(assert (= (select O 37) 2))
(assert (= (select O 38) 1))
(assert (= (select O 39) 1))
(assert (= (select O 40) 1))
(assert (= (select O 41) 1))
(assert (= (select O 42) 1))
(assert (= (select O 43) 1))
(assert (= (select O 44) 2))
(assert (= (select O 45) 1))
(assert (= (select O 46) 1))
(assert (= (select O 47) 1))
(assert (= (select O 48) 1))
(assert (= (select O 49) 1))
(assert (= (select O 50) 1))
(assert (= (select O 51) 1))
(assert (= (select O 52) 1))
(assert (= (select O 53) 1))
(assert (= (select O 54) 2))
(assert (= (select O 55) 1))
(assert (= (select O 56) 2))
(assert (= (select O 57) 1))
(assert (= (select O 58) 1))
(assert (= (select O 59) 2))
(assert (= (select O 60) 1))
(assert (= (select O 61) 1))
(assert (= (select O 62) 2))
(assert (= (select O 63) 2))
(assert (= (select O 64) 1))
(assert (= (select O 65) 1))
(assert (= (select O 66) 1))
(assert (= (select O 67) 1))
(assert (= (select O 68) 2))
(assert (= (select O 69) 1))
(assert (= (select O 70) 1))
(assert (= (select O 71) 1))
(assert (= (select O 72) 1))
(assert (= (select O 73) 1))
(assert (= (select O 74) 2))
(assert (= (select O 75) 1))
(assert (= (select O 76) 2))
(assert (= (select O 77) 1))
(assert (= (select O 78) 1))
(assert (= (select O 79) 1))
(assert (= (select O 80) 2))
(assert (= (select O 81) 1))
(assert (= (select O 82) 1))
(assert (= (select O 83) 1))
(assert (= (select O 84) 1))
(assert (= (select O 85) 1))
(assert (= (select O 86) 1))
(assert (= (select O 87) 2))
(assert (= (select O 88) 1))
(assert (= (select O 89) 2))
(assert (= (select O 90) 1))
(assert (= (select O 91) 1))
(assert (= (select O 92) 2))
(assert (= (select O 93) 1))
(assert (= (select O 94) 1))
(assert (= (select O 95) 2))
(assert (= (select O 96) 1))
(assert (= (select O 97) 1))
(assert (= (select O 98) 1))
(assert (= (select O 99) 1))
(assert (= (select O 100) 1))
(assert (= (select O 101) 1))
(assert (= (select O 102) 1))
(assert (= (select O 103) 1))
(assert (= (select O 104) 1))
(assert (= (select O 105) 2))
(assert (= (select O 106) 2))
(assert (= (select O 107) 1))
(assert (= (select O 108) 1))
(assert (= (select O 109) 1))
(assert (= (select O 110) 1))
(assert (= (select O 111) 1))
(assert (= (select O 112) 1))
(assert (= (select O 113) 2))
(assert (= (select O 114) 1))
(assert (= (select O 115) 1))
(assert (= (select O 116) 2))
(assert (= (select O 117) 1))
(assert (= (select O 118) 2))
(assert (= (select O 119) 1))
(assert (= (select O 120) 2))
(assert (= (select O 121) 1))
(assert (= (select O 122) 1))
(assert (= (select O 123) 1))
(assert (= (select O 124) 2))
(assert (= (select O 125) 1))
(assert (= (select O 126) 1))
(assert (= (select O 127) 2))
(assert (= (select O 128) 1))
(assert (= (select O 129) 2))
(assert (= (select O 130) 1))
(assert (= (select O 131) 2))
(assert (= (select O 132) 1))
(assert (= (select O 133) 1))
(assert (= (select O 134) 1))
(assert (= (select O 135) 1))
(assert (= (select O 136) 1))
(assert (= (select O 137) 2))
(assert (= (select O 138) 1))
(assert (= (select O 139) 1))
(assert (= (select O 140) 1))
(assert (= (select O 141) 1))
(assert (= (select O 142) 1))
(assert (= (select O 143) 2))
(assert (= (select O 144) 1))
(assert (= (select O 145) 1))
(assert (= (select O 146) 1))
(assert (= (select O 147) 1))
(assert (= (select O 148) 1))
(assert (= (select O 149) 1))
(assert (= (select O 150) 1))
(assert (= (select O 151) 1))
(assert (= (select O 152) 1))
(assert (= (select O 153) 1))
(assert (= (select O 154) 1))
(assert (= (select O 155) 2))
(assert (= (select O 156) 1))
(assert (= (select O 157) 1))
(assert (= (select O 158) 1))
(assert (= (select O 159) 1))
(assert (= (select O 160) 1))
(assert (= (select O 161) 1))
(assert (= (select O 162) 1))
(assert (= (select O 163) 1))
(assert (= (select O 164) 1))
(assert (= (select O 165) 1))
(assert (= (select O 166) 2))
(assert (= (select O 167) 1))
(assert (= (select O 168) 1))
(assert (= (select O 169) 2))
(assert (= (select O 170) 2))
(assert (= (select O 171) 1))
(assert (= (select O 172) 2))
(assert (= (select O 173) 1))
(assert (= (select O 174) 2))
(assert (= (select O 175) 2))
(assert (= (select O 176) 1))
(assert (= (select O 177) 1))
(assert (= (select O 178) 1))
(assert (= (select O 179) 1))
(assert (= (select O 180) 2))
(assert (= (select O 181) 2))
(assert (= (select O 182) 2))
(assert (= (select O 183) 1))
(assert (= (select O 184) 2))
(assert (= (select O 185) 1))
(assert (= (select O 186) 2))
(assert (= (select O 187) 1))
(assert (= (select O 188) 2))
(assert (= (select O 189) 1))
(assert (= (select O 190) 2))
(assert (= (select O 191) 2))
(assert (= (select O 192) 2))
(assert (= (select O 193) 1))
(assert (= (select O 194) 2))
(assert (= (select O 195) 2))
(assert (= (select O 196) 1))
(assert (= (select O 197) 2))
(assert (= (select O 198) 1))
(assert (= (select O 199) 2))
(assert (= (select O 200) 1))
(assert (= (select O 201) 1))
(assert (= (select O 202) 1))
(assert (= (select O 203) 2))
(assert (= (select O 204) 1))
(assert (= (select O 205) 1))
(assert (= (select O 206) 1))
(assert (= (select O 207) 1))
(assert (= (select O 208) 1))
(assert (= (select O 209) 1))
(assert (= (select O 210) 1))
(assert (= (select O 211) 1))
(assert (= (select O 212) 2))
(assert (= (select O 213) 2))
(assert (= (select O 214) 1))
(assert (= (select O 215) 1))
(assert (= (select O 216) 1))
(assert (= (select O 217) 1))
(assert (= (select O 218) 1))
(assert (= (select O 219) 1))
(assert (= (select O 220) 1))
(assert (= (select O 221) 1))
(assert (= (select O 222) 1))
(assert (= (select O 223) 1))
(assert (= (select O 224) 1))
(assert (= (select O 225) 1))
(assert (= (select O 226) 2))
(assert (= (select O 227) 2))
(assert (= (select O 228) 2))
(assert (= (select O 229) 1))
(assert (= (select O 230) 2))
(assert (= (select O 231) 1))
(assert (= (select O 232) 1))
(assert (= (select O 233) 1))
(assert (= (select O 234) 1))
(assert (= (select O 235) 2))
(assert (= (select O 236) 2))
(assert (= (select O 237) 2))
(assert (= (select O 238) 1))
(assert (= (select O 239) 1))
(assert (= (select O 240) 2))
(assert (= (select O 241) 1))
(assert (= (select O 242) 2))
(assert (= (select O 243) 1))
(assert (= (select O 244) 1))
(assert (= (select O 245) 1))
(assert (= (select O 246) 1))
(assert (= (select O 247) 1))
(assert (= (select O 248) 1))
(assert (= (select O 249) 2))
(assert (= (select O 250) 1))
(assert (= (select O 251) 1))
(assert (= (select O 252) 2))
(assert (= (select O 253) 1))
(assert (= (select O 254) 1))
(assert (= (select O 255) 1))
(assert (= (select O 256) 1))
(assert (= (select O 257) 2))
(assert (= (select O 258) 1))
(assert (= (select O 259) 1))
(assert (= (select O 260) 1))
(assert (= (select O 261) 1))
(assert (= (select O 262) 1))
(assert (= (select O 263) 1))
(assert (= (select O 264) 1))
(assert (= (select O 265) 2))
(assert (= (select O 266) 1))
(assert (= (select O 267) 1))
(assert (= (select O 268) 2))
(assert (= (select O 269) 1))
(assert (= (select O 270) 1))
(assert (= (select O 271) 1))
(assert (= (select O 272) 1))
(assert (= (select O 273) 2))
(assert (= (select O 274) 2))
(assert (= (select O 275) 1))
(assert (= (select O 276) 1))
(assert (= (select O 277) 1))
(assert (= (select O 278) 2))
(assert (= (select O 279) 1))
(assert (= (select O 280) 1))
(assert (= (select O 281) 1))
(assert (= (select O 282) 1))
(assert (= (select O 283) 1))
(assert (= (select O 284) 1))
(assert (= (select O 285) 1))
(assert (= (select O 286) 1))
(assert (= (select O 287) 1))
(assert (= (select O 288) 1))
(assert (= (select O 289) 2))
(assert (= (select O 290) 1))
(assert (= (select O 291) 2))
(assert (= (select O 292) 1))
(assert (= (select O 293) 1))
(assert (= (select O 294) 1))
(assert (= (select O 295) 2))
(assert (= (select O 296) 1))
(assert (= (select O 297) 1))
(assert (= (select O 298) 1))
(assert (= (select O 299) 1))
(declare-const L (Array Int Int))
(define-fun l () Int 2)

(assert (= (select L 0) 1))
(assert (= (select L 1) 2))

(define-fun-rec sum-if-value ((A (Array Int Int)) (item Int) (size Int)) Int
  (ite (< size 0)
       0
       (ite (= (select A size) item)
            (+ 1 (sum-if-value A item (- size 1)))
            (sum-if-value A item (- size 1))
       )
  )
)

(define-fun B () Int 2)

(assert
  (not
    (exists ((i Int))
      (and
        (>= i 0)
        (< i l)
        (< (sum-if-value O (select L i) (- m 1))
           (/ m (* l B)))
      )
    )
  )
)

(check-sat)
